Name:		mgval_0.45_4D
Optimal value:	-1
#Vehicles:	9
Capacity:	75
Depot Node:	1
#Nodes:		41
#Edges:		21
#Arcs:		83
#Required N:	31
#Required E:	11
#Required A:	45

ReN.	DEMAND	S. COST
N2	12	12
N3	7	7
N4	8	8
N7	1	1
N8	5	5
N10	7	7
N11	12	12
N12	4	4
N13	14	14
N15	19	19
N16	18	18
N17	9	9
N18	14	14
N19	5	5
N20	14	14
N23	14	14
N24	9	9
N26	10	10
N27	26	26
N28	6	6
N29	3	3
N30	19	19
N31	7	7
N32	6	6
N33	5	5
N35	15	15
N36	6	6
N37	10	10
N38	6	6
N39	14	14
N40	4	4

ReE.	FROM N.	TO N.	T. COST	DEMAND	S. COST
E11	9	14	5	10	10
E12	5	6	6	13	13
E13	14	15	3	8	8
E14	11	17	2	4	4
E15	9	10	3	6	6
E16	4	5	1	2	2
E17	21	22	4	9	9
E18	24	30	8	12	12
E19	36	40	4	7	7
E20	25	31	7	11	11
E21	3	9	1	1	1

EDGE	FROM N.	TO N.	T. COST
NrE1	11	16	6
NrE2	30	31	12
NrE3	27	32	3
NrE4	16	17	9
NrE5	17	18	4
NrE6	10	11	4
NrE7	20	21	5
NrE8	15	25	9
NrE9	24	25	4
NrE10	8	9	2

ReA.	FROM N.	TO N.	T. COST	DEMAND	S. COST
A39	19	16	1	1	1
A40	39	35	10	7	7
A41	14	13	8	8	8
A42	34	35	2	2	2
A43	28	27	7	13	13
A44	15	16	3	3	3
A45	26	32	7	6	6
A46	7	1	5	8	8
A47	10	15	1	1	1
A48	34	38	7	6	6
A49	37	33	2	4	4
A50	32	26	7	7	7
A51	20	27	5	4	4
A52	38	39	9	5	5
A53	13	23	7	7	7
A54	29	34	14	8	8
A55	29	23	5	7	7
A56	34	29	14	9	9
A57	11	12	5	4	4
A58	36	37	8	6	6
A59	36	32	10	7	7
A60	15	10	1	2	2
A61	23	24	3	2	2
A62	23	13	7	7	7
A63	31	32	5	9	9
A64	2	3	1	1	1
A65	12	11	5	5	5
A66	19	20	3	2	2
A67	25	26	6	4	4
A68	4	10	3	7	7
A69	13	14	8	8	8
A70	27	20	5	4	4
A71	11	5	4	8	8
A72	14	24	4	6	6
A73	22	28	5	6	6
A74	6	12	3	4	4
A75	39	40	2	1	1
A76	41	37	5	5	5
A77	8	2	10	10	10
A78	16	19	1	1	1
A79	3	2	1	1	1
A80	41	40	4	2	2
A81	24	14	4	7	7
A82	1	7	5	7	7
A83	30	29	3	3	3

ARC	FROM N.	TO N.	T. COST
NrA1	26	19	8
NrA2	17	20	2
NrA3	39	36	3
NrA4	36	35	8
NrA5	13	7	7
NrA6	27	26	7
NrA7	33	27	5
NrA8	37	36	8
NrA9	35	36	8
NrA10	3	4	7
NrA11	23	14	3
NrA12	12	6	3
NrA13	40	41	4
NrA14	39	38	9
NrA15	1	2	1
NrA16	18	22	6
NrA17	27	33	5
NrA18	16	15	3
NrA19	19	26	8
NrA20	23	29	5
NrA21	27	21	1
NrA22	35	39	10
NrA23	2	8	10
NrA24	37	41	5
NrA25	26	25	6
NrA26	20	17	2
NrA27	31	35	4
NrA28	35	34	2
NrA29	38	34	7
NrA30	8	7	2
NrA31	29	30	3
NrA32	20	19	3
NrA33	4	3	7
NrA34	28	22	5
NrA35	32	36	10
NrA36	40	39	2
NrA37	7	8	2
NrA38	24	23	3
